11274
1 0 0 0 0 1 0 0 0 0 0 0 0 0 1 0 0 1 0 0 1 0 0 0 1 0 0 0 0 0
20 0 20 14 20 5 17 24 14 17 24 20 20 20 17 14 14 17 5 0 14 0 5 17 5 20 17 24 5 24 5 5 20 5 20 20 24 24 0 14 0 14 24 14 24 14 0 20 0 14 5 14 14 5 20 20 17 0 0 14 0 5 20 0 0 0 24 0 5 24 20 20 5 17 24 20 24 20 14 24 20 0 20 17 17 17 17 0 20 5 17 24 17 0 17 24 14 17 5 20 14 17 17 0 17 5 17 0 14 14 14 14 17 0 0 5 24 24 24 24 5 20 5 20 20 0 5 24 0 5 0 0 24 5 14 14 17 5 20 17 0 20 20 14 20 0 0 5 17 5
